c 3 - XORSAT
p cnf 40 160
-13 -20 -34 0
-13 20 34 0
13 -20 34 0
13 20 -34 0
5 32 37 0
-5 -32 37 0
-5 32 -37 0
5 -32 -37 0
28 36 38 0
-28 -36 38 0
-28 36 -38 0
28 -36 -38 0
3 10 35 0
-3 -10 35 0
-3 10 -35 0
3 -10 -35 0
9 18 19 0
-9 -18 19 0
-9 18 -19 0
9 -18 -19 0
-3 -10 -23 0
-3 10 23 0
3 -10 23 0
3 10 -23 0
1 4 9 0
-1 -4 9 0
-1 4 -9 0
1 -4 -9 0
6 34 39 0
-6 -34 39 0
-6 34 -39 0
6 -34 -39 0
-15 -24 -40 0
-15 24 40 0
15 -24 40 0
15 24 -40 0
-10 -21 -35 0
-10 21 35 0
10 -21 35 0
10 21 -35 0
19 20 33 0
-19 -20 33 0
-19 20 -33 0
19 -20 -33 0
-28 -29 -31 0
-28 29 31 0
28 -29 31 0
28 29 -31 0
-24 -25 -31 0
-24 25 31 0
24 -25 31 0
24 25 -31 0
-14 -26 -27 0
-14 26 27 0
14 -26 27 0
14 26 -27 0
2 4 14 0
-2 -4 14 0
-2 4 -14 0
2 -4 -14 0
12 17 23 0
-12 -17 23 0
-12 17 -23 0
12 -17 -23 0
-13 -21 -32 0
-13 21 32 0
13 -21 32 0
13 21 -32 0
15 29 37 0
-15 -29 37 0
-15 29 -37 0
15 -29 -37 0
-32 -36 -38 0
-32 36 38 0
32 -36 38 0
32 36 -38 0
-1 -14 -16 0
-1 14 16 0
1 -14 16 0
1 14 -16 0
-26 -37 -39 0
-26 37 39 0
26 -37 39 0
26 37 -39 0
-22 -33 -35 0
-22 33 35 0
22 -33 35 0
22 33 -35 0
2 3 8 0
-2 -3 8 0
-2 3 -8 0
2 -3 -8 0
6 11 13 0
-6 -11 13 0
-6 11 -13 0
6 -11 -13 0
-5 -12 -40 0
-5 12 40 0
5 -12 40 0
5 12 -40 0
-18 -20 -31 0
-18 20 31 0
18 -20 31 0
18 20 -31 0
34 27 39 0
-34 -27 39 0
-34 27 -39 0
34 -27 -39 0
7 19 30 0
-7 -19 30 0
-7 19 -30 0
7 -19 -30 0
17 23 29 0
-17 -23 29 0
-17 23 -29 0
17 -23 -29 0
25 33 38 0
-25 -33 38 0
-25 33 -38 0
25 -33 -38 0
-15 -17 -22 0
-15 17 22 0
15 -17 22 0
15 17 -22 0
4 8 16 0
-4 -8 16 0
-4 8 -16 0
4 -8 -16 0
7 9 27 0
-7 -9 27 0
-7 9 -27 0
7 -9 -27 0
-24 -25 -36 0
-24 25 36 0
24 -25 36 0
24 25 -36 0
-1 -7 -16 0
-1 7 16 0
1 -7 16 0
1 7 -16 0
-11 -30 -40 0
-11 30 40 0
11 -30 40 0
11 30 -40 0
-6 -18 -11 0
-6 18 11 0
6 -18 11 0
6 18 -11 0
-2 -8 -22 0
-2 8 22 0
2 -8 22 0
2 8 -22 0
-12 -28 -30 0
-12 28 30 0
12 -28 30 0
12 28 -30 0
5 21 26 0
-5 -21 26 0
-5 21 -26 0
5 -21 -26 0
